c --- [ banner ] -------------------------------------------------------------
c 
c CaDiCaL Radically Simplified CDCL SAT Solver
c Copyright (c) 2016-2021 A. Biere, M. Fleury, N. Froleyks
c 
c Version 1.5.2 a5f15211db36c3956764e18194dd5bd63bf3b5e6
c g++ (GCC) 9.3.0 -Wall -Wextra -O3 -DNDEBUG
c Fri Oct 21 01:27:37 EDT 2022 Linux gra-login3 3.10.0-1160.66.1.el7.x86_64 x86_64
c 
c --- [ limit ] --------------------------------------------------------------
c 
c setting conflict limit to 200000 conflicts (due to '200000')
c 
c --- [ parsing input ] ------------------------------------------------------
c 
c reading DIMACS file from '33.cubes6869.adj'
c opening file to read '33.cubes6869.adj'
c found 'p cnf 6160 1595483' header
c parsed 1595483 clauses in 16.74 seconds process time
c closing file '33.cubes6869.adj'
c after reading 1457566831 bytes 1390.0 MB
c 
c --- [ options ] ------------------------------------------------------------
c 
c all options are set to their default value
c 
c --- [ solving ] ------------------------------------------------------------
c 
c time measured in process time since initialization
c 
c  seconds    reductions  redundant   irredundant
c          MB     restarts       trail       variables
c            level   conflicts       glue         remaining
c 
c * 16.74 1382  0 0   0    0    0  0% 0 1595422 2292 37%
c { 17.64 1438  0 0   0    0    0  0% 0 1595422 2292 37%
c i 22.16 1526 328 0  16  205  136 27% 14 1595422 2260 37%
c i 22.18 1526 322 0  17  209  139 27% 14 1595422 2246 36%
c i 22.40 1529 295 0  23  230  158 28% 16 1595422 2245 36%
c i 22.46 1530 293 0  24  233  159 28% 15 1595422 2243 36%
c i 22.78 1530 260 0  31  276  178 27% 16 1595422 2235 36%
c - 27.07 1473 245 1  39  302  201 27% 17 484151 2235 36%
c i 27.53 1474 241 1  44  326  221 27% 19 484151 2234 36%
c i 27.64 1474 235 1  46  334  226 27% 18 484151 2233 36%
c i 27.77 1474 227 1  49  347  238 28% 18 484151 2232 36%
c i 27.80 1475 225 1  50  349  239 27% 18 484151 2231 36%
c i 28.03 1475 217 1  55  377  255 27% 19 484151 2227 36%
c i 28.08 1475 214 1  58  389  262 27% 19 484151 2224 36%
c i 30.30 1478 165 1  96  598  423 27% 21 484151 2223 36%
c i 30.63 1401 156 1  99  638  458 27% 21 484151 2222 36%
c i 30.69 1401 155 1  99  643  462 27% 21 484151 2221 36%
c i 30.72 1401 155 1  99  644  462 27% 21 484151 2220 36%
c i 30.84 1401 152 1  99  660  474 28% 21 484151 2219 36%
c i 30.99 1401 151 1 100  666  479 28% 21 484151 2218 36%
c 
c  seconds     reductions  redundant   irredundant
c          MB      restarts       trail       variables
c             level   conflicts       glue         remaining
c 
c i 31.61 1402 143 1 114  727  527 28% 22 484151 2215 36%
c i 32.15 1403 140 1 128  784  575 27% 23 484151 2214 36%
c i 32.28 1403 139 1 131  793  583 27% 23 484151 2213 36%
c i 32.31 1403 139 1 132  795  584 27% 23 484151 2212 36%
c i 32.33 1403 138 1 133  797  585 27% 23 484151 2211 36%
c i 32.33 1403 138 1 133  798  585 27% 23 484151 2210 36%
c i 32.51 1403 137 1 135  811  596 27% 23 484151 2209 36%
c i 34.42 1404 127 1 163  939  708 28% 25 484151 2208 36%
c i 34.44 1404 127 1 164  941  709 28% 25 484151 2207 36%
c i 34.89 1404 124 1 167  969  731 28% 24 484151 2206 36%
c i 34.94 1404 123 1 167  979  739 28% 24 484151 2205 36%
c } 35.10 1404 121 1 167 1000  754 28% 24 484151 2205 36%
c [ 35.10 1404  0 1 167 1000  754  0% 0 484151 2205 36%
c O 35.11 1404 21 1 167 1003  757 23% 3 484151 2205 36%
c i 35.27 1404 10 1 167 1019  765 21% 6 484151 2204 36%
c i 35.40 1404 10 1 167 1024  769 23% 6 484151 2203 36%
c i 35.40 1404 10 1 167 1025  769 24% 5 484151 2202 36%
c i 35.40 1404 10 1 167 1030  773 24% 6 484151 2201 36%
c i 35.40 1404 10 1 167 1033  775 25% 6 484151 2200 36%
c i 35.53 1404 12 1 167 1050  790 26% 7 484151 2199 36%
c 
c  seconds    reductions  redundant  irredundant
c          MB     restarts       trail      variables
c            level   conflicts       glue        remaining
c 
c i 35.58 1404 13 1 167 1063  801 27% 9 484151 2198 36%
c i 35.62 1404 13 1 167 1072  809 27% 9 484151 2197 36%
c i 35.65 1404 14 1 167 1078  813 27% 10 484151 2196 36%
c i 35.69 1404 16 1 167 1086  819 28% 11 484151 2195 36%
c i 35.74 1404 16 1 167 1096  825 28% 11 484151 2194 36%
c i 35.75 1404 17 1 167 1108  833 28% 13 484151 2193 36%
c i 36.01 1404 23 1 167 1220  920 29% 18 484151 2192 36%
c i 36.02 1404 23 1 167 1234  930 29% 18 484151 2191 36%
c i 36.06 1404 23 1 167 1265  952 29% 18 484151 2190 36%
c - 36.86 1586 23 2 167 1312  916 29% 18 484016 2190 36%
c i 37.50 1586 26 2 167 1874 1386 31% 21 484016 2189 36%
c i 37.51 1586 26 2 167 1877 1388 31% 21 484016 2188 36%
c i 37.51 1586 26 2 167 1879 1389 31% 21 484016 2187 36%
c i 37.51 1586 26 2 167 1880 1389 31% 21 484016 2186 35%
c i 37.51 1586 26 2 167 1881 1389 31% 21 484016 2185 35%
c - 39.09 1585 31 3 168 2829 1693 31% 25 484001 2185 35%
c i 39.50 1585 31 3 168 2846 1704 49% 25 484001 2184 35%
c ] 39.78 1585 31 3 168 3000 1804 52% 25 484001 2184 35%
c { 39.78 1585 121 3 168 3000 1804 78% 24 484001 2184 35%
c F 39.78 1585 121 3 168 3004 1806 78% 24 484001 2184 35%
c 
c  seconds     reductions  redundant   irredundant
c          MB      restarts       trail       variables
c             level   conflicts       glue         remaining
c 
c i 39.78 1585 121 3 168 3004 1806 78% 24 484001 2183 35%
c i 39.89 1585 120 3 168 3010 1811 78% 24 484001 2182 35%
c i 40.03 1585 118 3 168 3033 1832 77% 23 484001 2181 35%
c i 40.51 1585 100 3 169 3255 1987 71% 22 484001 2180 35%
c i 42.37 1584 71 3 236 4151 2684 60% 20 484001 2164 35%
c - 43.94 1554 59 4 249 4852 2133 56% 19 411680 2159 35%
c 2 44.84 1554 57 4 249 5000 2962 56% 19 411660 2149 35%
c p 54.09 1554 57 4 249 5000 5610 56% 19 411660 2116 34%
c d 54.54 1554 57 4 249 5000 5262 56% 19 411038 2112 34%
c # 60.69 1554 58 4 424 6006 6078 52% 22 411038 2112 34%
c } 65.51 1554 55 4 513 7000 6815 49% 22 411038 2112 34%
c [ 65.51 1554 31 4 513 7000 6815 52% 25 411038 2112 34%
c - 66.12 1552 31 5 514 7273 3160 51% 25 411038 2112 34%
c I 68.24 1552 33 5 515 10011 5101 50% 28 411038 2112 34%
c - 68.89 1553 34 6 515 10177 3641 49% 28 411038 2112 34%
c - 73.97 1553 33 7 518 13566 3924 47% 27 411038 2112 34%
c ] 76.96 1553 32 7 518 15000 4870 46% 26 411038 2112 34%
c { 76.96 1553 55 7 518 15000 4870 49% 22 411038 2112 34%
c 2 77.03 1553 55 7 519 15000 5610 49% 22 411038 2112 34%
c p 78.99 1553 55 7 519 15000 8380 49% 22 411038 2112 34%
c 
c  seconds    reductions   redundant   irredundant
c          MB     restarts        trail       variables
c            level    conflicts       glue         remaining
c 
c B 79.29 1553 55 7 522 15013 8392 49% 22 411038 2112 34%
c - 81.57 1405 45 8 568 17443 4879 49% 21 411038 2112 34%
c s 82.68 1405 40 8 568 18889 5764 48% 20 408883 2112 34%
c v 89.41 1405 40 8 568 18889 5764 48% 20 408868 2112 34%
c w 89.53 1405 40 8 568 18889 5758 48% 20 408868 2112 34%
c t 89.54 1405 40 8 568 18889 5748 48% 20 408852 2112 34%
c e 90.36 1405 40 8 568 18889 5375 48% 20 406322 774 13%
c s 90.48 1405 40 8 568 18889 5375 48% 20 404978 774 13%
c W 93.44 1406 36 8 572 21014 6904 73% 20 404978 774 13%
c - 94.10 1406 35 9 572 21803 5322 73% 19 404978 774 13%
c - 97.10 1406 30 10 586 26625 5597 73% 18 404978 774 13%
c F 97.75 1406 29 10 591 28016 6522 73% 18 404978 774 13%
c p 107.24 1406 29 10 821 30001 9628 72% 18 404978 774 13%
c } 110.60 1406 29 10 904 31002 10333 71% 18 404978 774 13%
c [ 110.60 1406 32 10 904 31002 10333 131% 26 404978 774 13%
c - 113.43 1406 31 11 904 31929 6639 125% 25 404978 774 13%
c B 118.95 1406 33 11 907 36018 9707 108% 27 404978 774 13%
c - 120.19 1406 32 12 908 37716 7407 104% 26 404978 774 13%
c - 124.23 1406 31 13 911 43984 7370 95% 26 404978 774 13%
c W 126.33 1406 31 13 911 45019 8004 94% 26 404978 774 13%
c 
c  seconds     reductions    redundant   irredundant
c           MB      restarts        trail       variables
c             level     conflicts       glue        remaining
c 
c ] 128.11 1406 30 13 912 47868 9656 92% 25 404978 774 13%
c 1 128.11 1406 30 13 912 47868 9656 92% 25 404978 774 13%
c 
c --- [ writing output ] -----------------------------------------------------
c 
c writing simplified CNF to DIMACS file 'simp/33.cubes6869.adj.simp1'
c * 128.11 1406 30 13 912 47868 9656 92% 25 404978 774 13%
c opening file to write 'simp/33.cubes6869.adj.simp1'
c writing 'p cnf 6160 404978' header
c closing file 'simp/33.cubes6869.adj.simp1'
c after writing 166230489 bytes 158.5 MB
c wrote 404978 clauses in 0.97 seconds process time
c 
c --- [ writing extension ] --------------------------------------------------
c 
c writing extension stack to 'simp/33.cubes6869.adj.ext1'
c opening file to write 'simp/33.cubes6869.adj.ext1'
c closing file 'simp/33.cubes6869.adj.ext1'
c after writing 87716 bytes 0.1 MB
c wrote 3977 witnesses in 0.00 seconds process time
c 
c --- [ result ] -------------------------------------------------------------
c 
s SATISFIABLE
c 
c --- [ run-time profiling ] -------------------------------------------------
c 
c process time taken by individual solving procedures
c (percentage relative to process time for solving)
c 
c        89.08   79.98% search
c        54.15   48.62% unstable
c        32.22   28.93% stable
c        22.30   20.02% simplify
c        16.74   15.03% parse
c        12.46   11.19% probe
c         6.82    6.12% vivify
c         1.80    1.62% walk
c         1.48    1.33% elim
c         0.90    0.81% lucky
c         0.25    0.22% subsume
c         0.13    0.12% ternary
c   =================================
c       111.37   86.28% solve
c 
c last line shows process time for solving
c (percentage relative to total process time)
c 
c --- [ statistics ] ---------------------------------------------------------
c 
c chronological:              8404        17.56 %  of conflicts
c conflicts:                 47868       429.80    per second
c decisions:                113956      1023.21    per second
c eliminated:                 1338        21.72 %  of all variables
c fixed:                       890        14.45 %  of all variables
c learned:                   46915        98.01 %  per conflict
c learned_lits:            7572643       100.00 %  learned literals
c minimized:                     0         0.00 %  learned literals
c shrunken:                4961651        65.52 %  learned literals
c minishrunken:             485996         6.42 %  learned literals
c propagations:            4756931         0.04 M  per second
c reduced:                   22839        47.71 %  per conflict
c rephased:                      9      5318.67    interval
c restarts:                    912        52.49    interval
c stabilizing:                   3        56.13 %  of conflicts
c substituted:                  14         0.23 %  of all variables
c subsumed:                  17545         0.47 %  of all clauses
c strengthened:               8234         0.22 %  of all clauses
c ternary:                    1838         0.62 %  of resolved
c vivified:                     25         0.00 %  of all clauses
c walked:                        2     23934.00    interval
c weakened:                   3087         2.92    average size
c 
c seconds are measured in process time for solving
c 
c --- [ resources ] ----------------------------------------------------------
c 
c total process time since initialization:       129.08    seconds
c total real time since initialization:          129.66    seconds
c maximum resident set size of process:         1766.60    MB
c 
c --- [ shutting down ] ------------------------------------------------------
c 
c exit 10
WARNING! DIMACS header mismatch: wrong number of variables.
============================[ Problem Statistics ]=============================
|                                                                             |
|  Number of variables:          3251                                         |
|  Number of clauses:          404980                                         |
|  Parse time:                   2.19 s                                       |
|  Simplification time:          0.08 s                                       |
|                                                                             |
============================[ Search Statistics ]====================================================
| Conflicts |          ORIGINAL         |          LEARNT          | Num Sols |      SUBGRAPHS      |
|           |    Vars  Clauses Literals |    Limit  Clauses Lit/Cl |          | Canonical Noncanon. |
=====================================================================================================
|       247 |    3155   405127 36718382 |     2000      247     33 |        0 |        77       147 |
|       701 |    3155   405431 36723985 |     2000      701     23 |        0 |       266       451 |
|      1953 |    3155   406458 36742154 |     2000     1953     19 |        0 |       583      1478 |
|      4011 |    3155   408179 36767229 |     3601     3012     14 |        0 |       921      3199 |
|      6334 |    3155   409996 36799005 |     5003     3537     15 |        0 |      1430      5016 |
|     12389 |    3155   415292 36876975 |     7553     3942     12 |        0 |      2557     10312 |
|     18743 |    3155   420507 36954458 |     8782     6525     18 |        0 |      3479     15527 |
|     26661 |    3155   426717 37047412 |    11198     5059     11 |        0 |      4911     21737 |
|     47573 |    3155   445067 37305040 |    14807     7380     15 |        0 |      7927     40087 |
|     73806 |    3155   467456 37632314 |    18408     9614     10 |        0 |     11664     62476 |
|    114255 |    3155   502139 38063396 |    22009    20664     11 |        0 |     16255     97159 |
|    157430 |    3155   536665 38489711 |    26807    16237     15 |        0 |     20071    131685 |
=====================================================================================================
Number of solutions   : 0
Canonical subgraphs   : 21365          (47 /sec)
          order  3    : 1              (250000 /sec)
          order  4    : 1              (1000000 /sec)
          order  5    : 1              (250000 /sec)
          order  6    : 1              (55556 /sec)
          order  7    : 1              (8696 /sec)
          order  8    : 2              (1364 /sec)
          order  9    : 8              (383 /sec)
          order 10    : 39             (131 /sec)
          order 11    : 284            (59 /sec)
          order 12    : 1989           (46 /sec)
          order 13    : 18892          (48 /sec)
          order 14    : 146            (19 /sec)
          order 15    : 0              (-nan /sec)
          order 16    : 0              (-nan /sec)
          order 17    : 0              (-nan /sec)
          order 18    : 0              (-nan /sec)
          order 19    : 0              (-nan /sec)
          order 20    : 0              (-nan /sec)
          order 21    : 0              (-nan /sec)
          order 22    : 0              (-nan /sec)
Noncanonical subgraphs: 145716         (372 /sec)
          order  3    : 0              (-nan /sec)
          order  4    : 0              (-nan /sec)
          order  5    : 0              (-nan /sec)
          order  6    : 0              (-nan /sec)
          order  7    : 0              (-nan /sec)
          order  8    : 0              (-nan /sec)
          order  9    : 0              (-nan /sec)
          order 10    : 0              (-nan /sec)
          order 11    : 0              (-nan /sec)
          order 12    : 0              (-nan /sec)
          order 13    : 31972          (2622 /sec)
          order 14    : 112851         (301 /sec)
          order 15    : 893            (211 /sec)
          order 16    : 0              (-nan /sec)
          order 17    : 0              (-nan /sec)
          order 18    : 0              (-nan /sec)
          order 19    : 0              (-nan /sec)
          order 20    : 0              (-nan /sec)
          order 21    : 0              (-nan /sec)
Canonicity checking   : 451.016 s
Noncanonicity checking: 391.28 s
Total canonicity time : 842.296 s
database reductions   : 21
restarts              : 505
conflicts             : 179763         (192 /sec)
decisions             : 361726         (0.00 % random) (386 /sec)
propagations          : 7688856        (8204 /sec)
conflict literals     : 3115416        (59.40 % deleted)
actual reward         : 0.108077
Memory used           : 253.00 MB
CPU time              : 937.174 s

UNSATISFIABLE
